
===== New CPLEX run =====
Instance: /home/yorig/tuner/mpils-tests/instances/miplib/easy/lotsize.mps
Config: /scratch/yorig/mpils-results-grid-ticks-10000/easy/16proc/seed-9/4_lotsize_seed-9_20260425_202405/expansion/config_param_CPXPARAM_MIP_Strategy_RINSHeur_40_iter_1.prm
========================

Selected objective sense:  MINIMIZE
Selected objective  name:  R1921
Selected RHS        name:  B
Selected bound      name:  BOUND
Version identifier: 22.1.2.0 | 2024-11-26 | 0edbb82fd
CPXPARAM_Threads                                 8
CPXPARAM_Parallel                                1
CPXPARAM_MIP_Cuts_Cliques                        -1
CPXPARAM_MIP_Cuts_FlowCovers                     2
CPXPARAM_MIP_Cuts_Implied                        2
CPXPARAM_MIP_Cuts_GUBCovers                      -1
CPXPARAM_MIP_Limits_GomoryCand                   50
CPXPARAM_MIP_Cuts_Gomory                         1
CPXPARAM_MIP_Cuts_PathCut                        -1
CPXPARAM_MIP_Cuts_MIRCut                         2
CPXPARAM_MIP_Cuts_Disjunctive                    -1
CPXPARAM_Emphasis_MIP                            1
CPXPARAM_MIP_Strategy_RINSHeur                   40
CPXPARAM_DetTimeLimit                            10000
Tried aggregator 1 time.
MIP Presolve eliminated 595 rows and 0 columns.
MIP Presolve added 1190 rows and 0 columns.
MIP Presolve modified 10 coefficients.
Reduced MIP has 2515 rows, 2985 columns, and 7755 nonzeros.
Reduced MIP has 1195 binaries, 0 generals, 0 SOSs, and 0 indicators.
Presolve time = 0.00 sec. (4.53 ticks)
Probing fixed 0 vars, tightened 5487 bounds.
Probing time = 0.01 sec. (18.38 ticks)
Tried aggregator 2 times.
Detecting symmetries...
MIP Presolve modified 1206 coefficients.
Aggregator did 10 substitutions.
Reduced MIP has 2505 rows, 2975 columns, and 7735 nonzeros.
Reduced MIP has 1195 binaries, 0 generals, 0 SOSs, and 0 indicators.
Presolve time = 0.00 sec. (6.66 ticks)
Probing fixed 0 vars, tightened 2401 bounds.
Probing time = 0.00 sec. (6.41 ticks)
Clique table members: 190.
MIP emphasis: integer feasibility.
MIP search method: dynamic search.
Parallel mode: deterministic, using up to 8 threads.
Root relaxation solution time = 0.01 sec. (9.71 ticks)

        Nodes                                         Cuts/
   Node  Left     Objective  IInf  Best Integer    Best Bound    ItCnt     Gap

      0     0   348385.3466   472                 348385.3466      882         
      0     0   572313.5958   462                   Cuts: 726     1889         
      0     0   831822.5913   565                   Cuts: 726     2717         
      0     0   945966.5491   640                   Cuts: 726     3332         
*     0+    0                       1.01740e+07   945966.5491            90.70%
*     0+    0                      7973370.0000   945966.5491            88.14%
*     0+    0                      1940615.0000   945966.5491            51.25%
Detecting symmetries...
      0     2   945966.5491   640  1940615.0000  1149591.5406     3332   40.76%
Elapsed time = 1.21 sec. (1568.26 ticks, tree = 0.02 MB, solutions = 3)
    522   484  1045820.7817   443  1940615.0000  1149591.5406     9495   40.76%
   1198   998  1233667.0143   347  1940615.0000  1149591.5406    19028   40.76%
*  1613+ 1202                      1900276.0000  1149591.5406            39.50%
   1666  1497  1622929.4059   289  1900276.0000  1149591.5406    29235   39.50%
*  1686+ 1202                      1806816.0000  1149591.5406            36.37%
*  1702+ 1202                      1804566.0000  1149591.5406            36.30%
*  1707+ 1202                      1800628.0000  1149591.5406            36.16%
*  1707+ 1202                      1799380.0000  1149591.5406            36.11%
*  1707+ 1202                      1797590.0000  1149591.5406            36.05%
   1708  1452   951421.2679   623  1797590.0000  1149591.5406    28989   36.05%
*  1709+ 1162                      1797590.0000  1149591.5406            36.05%

Performing restart 1

Repeating presolve.
Tried aggregator 1 time.
MIP Presolve modified 1209 coefficients.
Reduced MIP has 2505 rows, 2975 columns, and 7735 nonzeros.
Reduced MIP has 1195 binaries, 0 generals, 0 SOSs, and 0 indicators.
Presolve time = 0.00 sec. (3.82 ticks)
Tried aggregator 1 time.
MIP Presolve modified 952 coefficients.
Reduced MIP has 2505 rows, 2975 columns, and 7735 nonzeros.
Reduced MIP has 1195 binaries, 0 generals, 0 SOSs, and 0 indicators.
Presolve time = 0.00 sec. (5.12 ticks)
Represolve time = 0.02 sec. (21.16 ticks)
   1710     0  1136764.3539   687  1797590.0000     Cuts: 726    35250   36.05%
   1710     0  1230174.0920   720  1797590.0000     Cuts: 726    36063   31.57%
   1710     0  1287121.2342   720  1797590.0000     Cuts: 726    36854   28.40%
   1710     2  1287121.2342   720  1797590.0000  1389263.2979    36854   22.72%
   1721    13  1363207.4333   685  1797590.0000  1389263.2979    37367   22.72%
   1732    24  1369455.2253   659  1797590.0000  1389263.2979    37592   22.72%
   1750    42  1377248.5063   617  1797590.0000  1389263.2979    38259   22.72%
   1770    62  1390080.3389   578  1797590.0000  1389263.2979    38897   22.72%

Cover cuts applied:  14
Implied bound cuts applied:  19
Flow cuts applied:  431
Mixed integer rounding cuts applied:  823
Multi commodity flow cuts applied:  10
Gomory fractional cuts applied:  2

Root node processing (before b&c):
  Real time             =    1.21 sec. (1566.13 ticks)
Parallel b&c, 8 threads:
  Real time             =    7.51 sec. (8467.78 ticks)
  Sync time (average)   =    0.19 sec.
  Wait time (average)   =    0.01 sec.
                          ------------
Total (root+branch&cut) =    8.71 sec. (10033.91 ticks)
Gap: 22.72%
Upper bound: 1.79759e+06
Lower bound: 1.38926e+06
End of CPLEX run. Time: 8.71241 seconds

===== New CPLEX run =====
Instance: /home/yorig/tuner/mpils-tests/instances/miplib/easy/lotsize.mps
Config: /scratch/yorig/mpils-results-grid-ticks-10000/easy/16proc/seed-9/4_lotsize_seed-9_20260425_202405/expansion/config_param_CPXPARAM_MIP_Strategy_RINSHeur_60_iter_1.prm
========================

Selected objective sense:  MINIMIZE
Selected objective  name:  R1921
Selected RHS        name:  B
Selected bound      name:  BOUND
Version identifier: 22.1.2.0 | 2024-11-26 | 0edbb82fd
CPXPARAM_Threads                                 8
CPXPARAM_Parallel                                1
CPXPARAM_MIP_Cuts_Cliques                        -1
CPXPARAM_MIP_Cuts_FlowCovers                     2
CPXPARAM_MIP_Cuts_Implied                        2
CPXPARAM_MIP_Cuts_GUBCovers                      -1
CPXPARAM_MIP_Limits_GomoryCand                   50
CPXPARAM_MIP_Cuts_Gomory                         1
CPXPARAM_MIP_Cuts_PathCut                        -1
CPXPARAM_MIP_Cuts_MIRCut                         2
CPXPARAM_MIP_Cuts_Disjunctive                    -1
CPXPARAM_Emphasis_MIP                            1
CPXPARAM_MIP_Strategy_RINSHeur                   60
CPXPARAM_DetTimeLimit                            10000
Tried aggregator 1 time.
MIP Presolve eliminated 595 rows and 0 columns.
MIP Presolve added 1190 rows and 0 columns.
MIP Presolve modified 10 coefficients.
Reduced MIP has 2515 rows, 2985 columns, and 7755 nonzeros.
Reduced MIP has 1195 binaries, 0 generals, 0 SOSs, and 0 indicators.
Presolve time = 0.00 sec. (4.53 ticks)
Probing fixed 0 vars, tightened 5487 bounds.
Probing time = 0.01 sec. (18.38 ticks)
Tried aggregator 2 times.
Detecting symmetries...
MIP Presolve modified 1206 coefficients.
Aggregator did 10 substitutions.
Reduced MIP has 2505 rows, 2975 columns, and 7735 nonzeros.
Reduced MIP has 1195 binaries, 0 generals, 0 SOSs, and 0 indicators.
Presolve time = 0.00 sec. (6.66 ticks)
Probing fixed 0 vars, tightened 2401 bounds.
Probing time = 0.00 sec. (6.41 ticks)
Clique table members: 190.
MIP emphasis: integer feasibility.
MIP search method: dynamic search.
Parallel mode: deterministic, using up to 8 threads.
Root relaxation solution time = 0.01 sec. (9.71 ticks)

        Nodes                                         Cuts/
   Node  Left     Objective  IInf  Best Integer    Best Bound    ItCnt     Gap

      0     0   348385.3466   472                 348385.3466      882         
      0     0   572313.5958   462                   Cuts: 726     1889         
      0     0   831822.5913   565                   Cuts: 726     2717         
      0     0   945966.5491   640                   Cuts: 726     3332         
*     0+    0                       1.01740e+07   945966.5491            90.70%
*     0+    0                      7973370.0000   945966.5491            88.14%
*     0+    0                      1940615.0000   945966.5491            51.25%
Detecting symmetries...
      0     2   945966.5491   640  1940615.0000  1149591.5406     3332   40.76%
Elapsed time = 1.22 sec. (1568.26 ticks, tree = 0.02 MB, solutions = 3)
    522   484  1045820.7817   443  1940615.0000  1149591.5406     9495   40.76%
   1198   998  1233667.0143   347  1940615.0000  1149591.5406    19028   40.76%
*  1613+ 1202                      1900276.0000  1149591.5406            39.50%
   1666  1497  1622929.4059   289  1900276.0000  1149591.5406    29235   39.50%
*  1686+ 1202                      1806816.0000  1149591.5406            36.37%
*  1702+ 1202                      1804566.0000  1149591.5406            36.30%
*  1707+ 1202                      1800628.0000  1149591.5406            36.16%
*  1707+ 1202                      1799380.0000  1149591.5406            36.11%
*  1707+ 1202                      1797590.0000  1149591.5406            36.05%
   1708  1452   951421.2679   623  1797590.0000  1149591.5406    28989   36.05%
*  1709+ 1162                      1797590.0000  1149591.5406            36.05%

Performing restart 1

Repeating presolve.
Tried aggregator 1 time.
MIP Presolve modified 1209 coefficients.
Reduced MIP has 2505 rows, 2975 columns, and 7735 nonzeros.
Reduced MIP has 1195 binaries, 0 generals, 0 SOSs, and 0 indicators.
Presolve time = 0.00 sec. (3.82 ticks)
Tried aggregator 1 time.
MIP Presolve modified 952 coefficients.
Reduced MIP has 2505 rows, 2975 columns, and 7735 nonzeros.
Reduced MIP has 1195 binaries, 0 generals, 0 SOSs, and 0 indicators.
Presolve time = 0.00 sec. (5.12 ticks)
Represolve time = 0.02 sec. (21.16 ticks)
   1710     0  1136764.3539   687  1797590.0000     Cuts: 726    35250   36.05%
   1710     0  1230174.0920   720  1797590.0000     Cuts: 726    36063   31.57%
   1710     0  1287121.2342   720  1797590.0000     Cuts: 726    36854   28.40%
   1710     2  1287121.2342   720  1797590.0000  1389263.2979    36854   22.72%
   1721    13  1363207.4333   685  1797590.0000  1389263.2979    37367   22.72%
   1732    24  1369455.2253   659  1797590.0000  1389263.2979    37592   22.72%
   1750    42  1377248.5063   617  1797590.0000  1389263.2979    38259   22.72%
   1770    62  1390080.3389   578  1797590.0000  1389263.2979    38897   22.72%

Cover cuts applied:  14
Implied bound cuts applied:  19
Flow cuts applied:  431
Mixed integer rounding cuts applied:  823
Multi commodity flow cuts applied:  10
Gomory fractional cuts applied:  2

Root node processing (before b&c):
  Real time             =    1.21 sec. (1566.13 ticks)
Parallel b&c, 8 threads:
  Real time             =    7.56 sec. (8467.78 ticks)
  Sync time (average)   =    0.19 sec.
  Wait time (average)   =    0.01 sec.
                          ------------
Total (root+branch&cut) =    8.77 sec. (10033.91 ticks)
Gap: 22.72%
Upper bound: 1.79759e+06
Lower bound: 1.38926e+06
End of CPLEX run. Time: 8.77557 seconds

===== New CPLEX run =====
Instance: /home/yorig/tuner/mpils-tests/instances/miplib/easy/lotsize.mps
Config: /scratch/yorig/mpils-results-grid-ticks-10000/easy/16proc/seed-9/4_lotsize_seed-9_20260425_202405/expansion/config_param_CPXPARAM_MIP_Strategy_RINSHeur_100_iter_1.prm
========================

Selected objective sense:  MINIMIZE
Selected objective  name:  R1921
Selected RHS        name:  B
Selected bound      name:  BOUND
Version identifier: 22.1.2.0 | 2024-11-26 | 0edbb82fd
CPXPARAM_Threads                                 8
CPXPARAM_Parallel                                1
CPXPARAM_MIP_Cuts_Cliques                        -1
CPXPARAM_MIP_Cuts_FlowCovers                     2
CPXPARAM_MIP_Cuts_Implied                        2
CPXPARAM_MIP_Cuts_GUBCovers                      -1
CPXPARAM_MIP_Limits_GomoryCand                   50
CPXPARAM_MIP_Cuts_Gomory                         1
CPXPARAM_MIP_Cuts_PathCut                        -1
CPXPARAM_MIP_Cuts_MIRCut                         2
CPXPARAM_MIP_Cuts_Disjunctive                    -1
CPXPARAM_Emphasis_MIP                            1
CPXPARAM_MIP_Strategy_RINSHeur                   100
CPXPARAM_DetTimeLimit                            10000
Tried aggregator 1 time.
MIP Presolve eliminated 595 rows and 0 columns.
MIP Presolve added 1190 rows and 0 columns.
MIP Presolve modified 10 coefficients.
Reduced MIP has 2515 rows, 2985 columns, and 7755 nonzeros.
Reduced MIP has 1195 binaries, 0 generals, 0 SOSs, and 0 indicators.
Presolve time = 0.00 sec. (4.53 ticks)
Probing fixed 0 vars, tightened 5487 bounds.
Probing time = 0.01 sec. (18.38 ticks)
Tried aggregator 2 times.
Detecting symmetries...
MIP Presolve modified 1206 coefficients.
Aggregator did 10 substitutions.
Reduced MIP has 2505 rows, 2975 columns, and 7735 nonzeros.
Reduced MIP has 1195 binaries, 0 generals, 0 SOSs, and 0 indicators.
Presolve time = 0.00 sec. (6.66 ticks)
Probing fixed 0 vars, tightened 2401 bounds.
Probing time = 0.00 sec. (6.41 ticks)
Clique table members: 190.
MIP emphasis: integer feasibility.
MIP search method: dynamic search.
Parallel mode: deterministic, using up to 8 threads.
Root relaxation solution time = 0.01 sec. (9.71 ticks)

        Nodes                                         Cuts/
   Node  Left     Objective  IInf  Best Integer    Best Bound    ItCnt     Gap

      0     0   348385.3466   472                 348385.3466      882         
      0     0   572313.5958   462                   Cuts: 726     1889         
      0     0   831822.5913   565                   Cuts: 726     2717         
      0     0   945966.5491   640                   Cuts: 726     3332         
*     0+    0                       1.01740e+07   945966.5491            90.70%
*     0+    0                      7973370.0000   945966.5491            88.14%
*     0+    0                      1940615.0000   945966.5491            51.25%
Detecting symmetries...
      0     2   945966.5491   640  1940615.0000  1149591.5406     3332   40.76%
Elapsed time = 1.21 sec. (1568.26 ticks, tree = 0.02 MB, solutions = 3)
    522   484  1045820.7817   443  1940615.0000  1149591.5406     9495   40.76%
   1198   998  1233667.0143   347  1940615.0000  1149591.5406    19028   40.76%
*  1613+ 1202                      1900276.0000  1149591.5406            39.50%
   1666  1497  1622929.4059   289  1900276.0000  1149591.5406    29235   39.50%
*  1686+ 1202                      1806816.0000  1149591.5406            36.37%
*  1702+ 1202                      1804566.0000  1149591.5406            36.30%
*  1707+ 1202                      1800628.0000  1149591.5406            36.16%
*  1707+ 1202                      1799380.0000  1149591.5406            36.11%
*  1707+ 1202                      1797590.0000  1149591.5406            36.05%
   1708  1452   951421.2679   623  1797590.0000  1149591.5406    28989   36.05%
*  1709+ 1162                      1797590.0000  1149591.5406            36.05%

Performing restart 1

Repeating presolve.
Tried aggregator 1 time.
MIP Presolve modified 1209 coefficients.
Reduced MIP has 2505 rows, 2975 columns, and 7735 nonzeros.
Reduced MIP has 1195 binaries, 0 generals, 0 SOSs, and 0 indicators.
Presolve time = 0.00 sec. (3.82 ticks)
Tried aggregator 1 time.
MIP Presolve modified 952 coefficients.
Reduced MIP has 2505 rows, 2975 columns, and 7735 nonzeros.
Reduced MIP has 1195 binaries, 0 generals, 0 SOSs, and 0 indicators.
Presolve time = 0.00 sec. (5.12 ticks)
Represolve time = 0.02 sec. (21.16 ticks)
   1710     0  1136764.3539   687  1797590.0000     Cuts: 726    35250   36.05%
   1710     0  1230174.0920   720  1797590.0000     Cuts: 726    36063   31.57%
   1710     0  1287121.2342   720  1797590.0000     Cuts: 726    36854   28.40%
   1710     2  1287121.2342   720  1797590.0000  1389263.2979    36854   22.72%
   1721    13  1363207.4333   685  1797590.0000  1389263.2979    37367   22.72%
   1732    24  1369455.2253   659  1797590.0000  1389263.2979    37592   22.72%
   1750    42  1377248.5063   617  1797590.0000  1389263.2979    38259   22.72%
   1770    62  1390080.3389   578  1797590.0000  1389263.2979    38897   22.72%

Cover cuts applied:  14
Implied bound cuts applied:  19
Flow cuts applied:  431
Mixed integer rounding cuts applied:  823
Multi commodity flow cuts applied:  10
Gomory fractional cuts applied:  2

Root node processing (before b&c):
  Real time             =    1.21 sec. (1566.13 ticks)
Parallel b&c, 8 threads:
  Real time             =    7.54 sec. (8467.78 ticks)
  Sync time (average)   =    0.21 sec.
  Wait time (average)   =    0.01 sec.
                          ------------
Total (root+branch&cut) =    8.75 sec. (10033.91 ticks)
Gap: 22.72%
Upper bound: 1.79759e+06
Lower bound: 1.38926e+06
End of CPLEX run. Time: 8.75299 seconds
